Maximize
  0.6749497248606067 Z_54_1_0 + 0.0234445547000277 Z_54_1_1
   + 0.00166431024587353 Z_54_1_2 + 0.1688329754646276 Z_54_1_3
   + 0.0311084347288646 Z_54_1_4 + 0.00213091727964963 Z_54_0_0
   + 0.00191026164734835 Z_54_0_1 + 0.8588013038253115 Z_54_0_2
   + 0.00957815048835279 Z_54_0_3 + 0.0275793667593378 Z_54_0_4
   + 0.02849802656277 Z_54_2_0 + 0.00301204950766249 Z_54_2_1
   + 0.00514472963131703 Z_54_2_2 + 0.7340827223443599 Z_54_2_3
   + 0.1292624719538907 Z_54_2_4 + 7.8873543464742758e-04 Z_150_0_0
   + 3.8888658270624357e-04 Z_150_0_1 + 0.0136228938486772 Z_150_0_2
   + 0.854108726746118 Z_150_0_3 + 0.0310907573878511 Z_150_0_4 + [
   0.1618695503138687 Z_54_1_0 * Z_150_0_0
   + 0.1618695503138687 Z_54_1_1 * Z_150_0_1
   + 0.1618695503138687 Z_54_1_2 * Z_150_0_2
   + 0.1618695503138687 Z_54_1_3 * Z_150_0_3
   + 0.1618695503138687 Z_54_1_4 * Z_150_0_4
   + 0.2588001298395617 Z_54_2_0 * Z_150_0_0
   + 0.2588001298395617 Z_54_2_1 * Z_150_0_1
   + 0.2588001298395617 Z_54_2_2 * Z_150_0_2
   + 0.2588001298395617 Z_54_2_3 * Z_150_0_3
   + 0.2588001298395617 Z_54_2_4 * Z_150_0_4 ] / 2 
Subject To
 constraint1_541: Z_54_1_0 + Z_54_1_1 + Z_54_1_2 + Z_54_1_3 + Z_54_1_4
   <= 1
 constraint1_540: Z_54_0_0 + Z_54_0_1 + Z_54_0_2 + Z_54_0_3 + Z_54_0_4
   <= 1
 constraint1_542: Z_54_2_0 + Z_54_2_1 + Z_54_2_2 + Z_54_2_3 + Z_54_2_4
   <= 1
 constraint1_1500: Z_150_0_0 + Z_150_0_1 + Z_150_0_2 + Z_150_0_3
   + Z_150_0_4 <= 1
 constraint2_2900: <= 1
 constraint2_2901: <= 1
 constraint2_2902: <= 1
 constraint2_2903: <= 1
 constraint2_540: Z_54_1_0 + Z_54_0_0 + Z_54_2_0 <= 1
 constraint2_541: Z_54_1_1 + Z_54_0_1 + Z_54_2_1 <= 1
 constraint2_542: Z_54_1_2 + Z_54_0_2 + Z_54_2_2 <= 1
 constraint2_543: Z_54_1_3 + Z_54_0_3 + Z_54_2_3 <= 1
 constraint2_1500: Z_150_0_0 <= 1
 constraint2_1501: Z_150_0_1 <= 1
 constraint2_1502: Z_150_0_2 <= 1
 constraint2_1503: Z_150_0_3 <= 1
Bounds
Binaries
 Z_54_1_0 Z_54_1_1 Z_54_1_2 Z_54_1_3 Z_54_1_4 Z_54_0_0 Z_54_0_1 Z_54_0_2
 Z_54_0_3 Z_54_0_4 Z_54_2_0 Z_54_2_1 Z_54_2_2 Z_54_2_3 Z_54_2_4 Z_150_0_0
 Z_150_0_1 Z_150_0_2 Z_150_0_3 Z_150_0_4
End
